12
0 38 5 36 58 99 66 53 53 60 90 52 
73 0 59 52 94 86 45 85 24 10 26 51 
40 11 0 59 53 38 92 81 27 30 56 52 
88 56 72 0 35 10 51 38 10 18 70 45 
75 97 65 11 0 58 66 14 89 6 33 35 
82 5 47 99 62 0 83 3 83 16 37 64 
55 38 9 40 73 8 0 88 17 29 95 37 
70 29 16 92 28 80 12 0 81 82 37 93 
38 45 69 14 14 64 25 3 0 92 91 85 
92 75 29 94 55 71 56 16 8 0 48 84 
48 8 57 41 75 3 36 73 87 18 0 28 
7 28 5 99 69 1 58 33 47 5 82 0 
